c --- [ banner ] -------------------------------------------------------------
c 
c CaDiCaL Radically Simplified CDCL SAT Solver
c Copyright (c) 2016-2021 A. Biere, M. Fleury, N. Froleyks
c 
c Version 1.5.2 ca9bff05c11bde5eae4912f9932871d1527e61d8
c g++ (GCC) 9.3.0 -Wall -Wextra -O3 -DNDEBUG
c Thu Jul 28 23:42:48 EDT 2022 Linux gra-login3 3.10.0-1160.66.1.el7.x86_64 x86_64
c 
c --- [ limit ] --------------------------------------------------------------
c 
c setting conflict limit to 200000 conflicts (due to '200000')
c 
c --- [ parsing input ] ------------------------------------------------------
c 
c reading DIMACS file from '23.cubes383.adj'
c opening file to read '23.cubes383.adj'
c found 'p cnf 5320 914894' header
c parsed 914894 clauses in 6.88 seconds process time
c closing file '23.cubes383.adj'
c after reading 637830002 bytes 608.3 MB
c 
c --- [ options ] ------------------------------------------------------------
c 
c all options are set to their default value
c 
c --- [ solving ] ------------------------------------------------------------
c 
c time measured in process time since initialization
c 
c  seconds   reductions  redundant  irredundant
c          MB    restarts       trail      variables
c           level   conflicts       glue        remaining
c 
c *  6.89 630  0 0   0    0    0  0% 0 914847 2191 41%
c {  7.16 645  0 0   0    0    0  0% 0 914847 2191 41%
c i  7.55 673 1075 0   0   20   16 35% 3 914847 2187 41%
c i  7.74 676 1033 0   1   31   25 33% 4 914847 2165 41%
c i  7.74 676 996 0   1   32   25 32% 4 914847 2159 41%
c i  8.61 697 490 0   3   63   50 26% 4 914847 2158 41%
c i  9.30 708 404 0   9   83   65 26% 13 914847 2152 40%
c i  9.41 709 398 0  10   85   66 26% 14 914847 2147 40%
c i  9.97 712 263 0  22  144  111 27% 23 914847 2144 40%
c i 10.10 713 255 0  24  150  115 27% 23 914847 2140 40%
c i 10.22 715 248 0  26  157  121 27% 23 914847 2139 40%
c i 10.43 716 221 0  32  182  141 27% 25 914847 2138 40%
c i 10.49 716 217 0  34  186  144 27% 25 914847 2137 40%
c i 10.65 717 201 0  38  203  160 27% 24 914847 2136 40%
c i 10.90 719 199 0  42  221  174 27% 29 914847 2122 40%
c i 11.27 720 192 0  48  250  198 27% 32 914847 2121 40%
c i 11.30 720 191 0  50  258  204 27% 34 914847 2120 40%
c i 11.32 720 189 0  52  264  207 27% 34 914847 2119 40%
c i 11.34 720 186 0  52  271  213 27% 34 914847 2118 40%
c i 11.36 720 183 0  53  275  216 27% 33 914847 2117 40%
c 
c  seconds    reductions  redundant   irredundant
c          MB     restarts       trail       variables
c            level   conflicts       glue         remaining
c 
c - 13.20 701 176 1  60  301  236 27% 34 240717 2117 40%
c i 13.39 641 165 1  62  323  244 26% 33 240717 2116 40%
c i 13.54 641 157 1  62  345  258 26% 33 240717 2115 40%
c i 13.55 641 156 1  62  346  258 26% 33 240717 2114 40%
c i 13.58 641 151 1  62  361  267 26% 32 240717 2113 40%
c i 13.61 641 149 1  62  367  272 26% 32 240717 2112 40%
c i 13.61 641 149 1  62  368  272 26% 32 240717 2111 40%
c i 13.63 641 147 1  62  375  278 26% 32 240717 2110 40%
c i 13.68 641 142 1  62  395  294 26% 33 240717 2109 40%
c i 13.70 641 140 1  62  406  301 26% 32 240717 2108 40%
c i 13.70 641 139 1  62  407  301 26% 32 240717 2107 40%
c i 13.70 641 139 1  62  408  301 26% 32 240717 2106 40%
c i 13.82 641 133 1  66  438  327 26% 33 240717 2105 40%
c i 13.85 641 133 1  66  442  330 26% 33 240717 2104 40%
c i 13.91 641 130 1  67  459  346 27% 33 240717 2103 40%
c i 14.03 641 125 1  68  490  375 27% 33 240717 2102 40%
c i 14.04 641 125 1  68  494  378 27% 33 240717 2101 39%
c i 14.56 642 115 1  80  597  448 26% 33 240717 2100 39%
c i 14.83 642 114 1  83  621  471 26% 34 240717 2099 39%
c i 15.12 643 111 1  87  657  503 26% 34 240717 2098 39%
c 
c  seconds    reductions  redundant   irredundant
c          MB     restarts       trail       variables
c            level   conflicts       glue         remaining
c 
c i 15.41 644 108 1  90  702  545 26% 34 240717 2097 39%
c i 15.45 644 108 1  92  708  549 26% 34 240717 2096 39%
c i 15.47 644 108 1  92  711  551 26% 34 240717 2095 39%
c i 15.48 644 108 1  93  712  551 26% 34 240717 2094 39%
c i 15.62 644 105 1  98  746  571 26% 34 240717 2046 38%
c i 15.81 644 103 1 100  779  600 26% 34 240717 2045 38%
c i 16.01 644 100 1 107  860  669 26% 34 240717 2044 38%
c i 16.23 644 100 1 110  883  687 26% 35 240717 2043 38%
c i 16.60 645 96 1 114  944  722 26% 34 240717 2042 38%
c i 16.65 645 94 1 114  975  749 26% 33 240717 2041 38%
c i 16.71 645 93 1 114 1003  764 26% 34 240717 2040 38%
c } 16.71 645 93 1 114 1003  764 26% 34 240717 2040 38%
c [ 16.71 645  0 1 114 1003  764  0% 0 240717 2040 38%
c O 16.71 645  0 1 114 1004  764  9% 0 240717 2040 38%
c i 16.71 645  0 1 114 1004  764  9% 0 240717 1992 37%
c - 17.40 744 24 2 114 1131  728 31% 20 238712 1992 37%
c i 17.53 744 24 2 114 1174  756 31% 21 238712 1991 37%
c i 17.55 744 24 2 114 1204  773 31% 21 238712 1990 37%
c i 17.60 744 24 2 114 1387  883 31% 21 238712 1989 37%
c i 17.64 744 25 2 114 1485  940 31% 21 238712 1987 37%
c 
c  seconds   reductions  redundant   irredundant
c          MB    restarts       trail       variables
c           level   conflicts       glue         remaining
c 
c i 17.78 744 29 2 114 2016 1341 31% 24 238712 1986 37%
c - 18.06 743 28 3 115 2371 1221 31% 24 238696 1986 37%
c ] 18.52 725 28 3 115 3006 1655 55% 24 238696 1986 37%
c { 18.52 725 93 3 115 3006 1655 69% 34 238696 1986 37%
c F 18.60 725 93 3 115 3007 1656 69% 34 238696 1986 37%
c i 18.97 725 86 3 118 3194 1819 66% 33 238696 1985 37%
c i 19.05 725 77 3 118 3414 2006 64% 32 238696 1984 37%
c i 19.08 725 75 3 118 3481 2061 63% 31 238696 1983 37%
c i 19.12 725 72 3 118 3604 2140 62% 31 238696 1982 37%
c i 19.12 725 71 3 118 3610 2145 62% 31 238696 1981 37%
c i 19.20 725 66 3 118 3820 2305 61% 30 238696 1980 37%
c - 19.50 724 63 4 121 4024 1762 60% 29 238678 1980 37%
c i 19.62 724 63 4 121 4069 1796 60% 29 238678 1979 37%
c i 19.98 724 64 4 131 4137 1854 59% 30 238678 1978 37%
c 2 20.89 724 53 4 132 5000 3229 57% 27 238658 1971 37%
c p 24.51 724 53 4 132 5000 5260 57% 27 238658 1917 36%
c d 24.83 724 53 4 132 5000 5258 57% 27 238497 1916 36%
c # 26.06 724 47 4 152 6008 6027 56% 26 238497 1916 36%
c - 26.42 721 47 5 154 6094 2360 56% 26 238497 1916 36%
c } 29.53 721 48 5 253 7006 3108 55% 27 238497 1916 36%
c 
c  seconds   reductions  redundant   irredundant
c          MB    restarts       trail       variables
c           level   conflicts       glue         remaining
c 
c [ 29.53 721 28 5 253 7006 3108 55% 24 238497 1916 36%
c - 30.69 721 31 6 254 8573 2972 55% 26 238497 1916 36%
c I 31.57 721 31 6 255 10009 3971 55% 27 238497 1916 36%
c - 32.41 721 33 7 257 11465 3352 55% 29 238497 1916 36%
c - 33.77 721 36 8 258 14773 3590 54% 31 238497 1916 36%
c p 34.88 721 36 8 258 15000 6702 53% 31 238497 1916 36%
c ] 34.98 721 36 8 258 15011 6708 53% 31 238497 1916 36%
c { 34.98 721 48 8 258 15011 6708 55% 27 238497 1916 36%
c B 35.01 721 48 8 258 15012 6709 55% 27 238497 1916 36%
c s 36.58 721 40 8 273 17412 8203 54% 24 237213 1916 36%
c v 40.27 721 40 8 273 17412 8203 54% 24 237211 1916 36%
c t 40.40 721 40 8 273 17412 8197 54% 24 237204 1916 36%
c e 40.97 721 40 8 273 17412 5859 54% 24 234761 801 15%
c s 41.04 721 40 8 273 17412 5859 54% 24 232995 801 15%
c - 42.36 628 38 9 273 18494 4121 76% 24 232995 801 15%
c W 43.22 628 34 9 283 21014 5721 77% 22 232995 801 15%
c - 45.13 721 34 10 345 22602 4694 76% 22 232995 801 15%
c - 53.30 628 34 11 678 27115 5634 75% 22 232995 801 15%
c F 58.08 628 36 11 882 28020 6393 75% 23 232995 801 15%
c p 63.75 627 37 11 1090 30000 9546 74% 23 232995 801 15%
c 
c  seconds   reductions      redundant   irredundant
c          MB     restarts          trail       variables
c           level      conflicts        glue        remaining
c 
c } 66.20 628 37 11 1199 31013 10420 74% 24 232995 801 15%
c [ 66.20 628 36 11 1199 31013 10420 132% 31 232995 801 15%
c - 66.67 722 35 12 1199 32039 7040 126% 30 232995 801 15%
c B 68.79 722 32 12 1202 36021 9569 111% 28 232995 801 15%
c - 69.47 628 34 13 1202 37371 7161 108% 29 232995 801 15%
c - 71.63 723 35 14 1206 43120 7438 99% 30 232995 801 15%
c W 73.23 723 35 14 1206 45022 8695 97% 31 232995 801 15%
c ] 74.12 723 35 14 1207 48180 10618 94% 30 232995 801 15%
c 1 74.12 723 35 14 1207 48180 10618 94% 30 232995 801 15%
c 
c --- [ writing output ] -----------------------------------------------------
c 
c writing simplified CNF to DIMACS file 'simp/23.cubes383.adj.simp1'
c * 74.12 723 35 14 1207 48180 10618 94% 30 232995 801 15%
c opening file to write 'simp/23.cubes383.adj.simp1'
c writing 'p cnf 5320 232995' header
c closing file 'simp/23.cubes383.adj.simp1'
c after writing 106321824 bytes 101.4 MB
c wrote 232995 clauses in 0.69 seconds process time
c 
c --- [ writing extension ] --------------------------------------------------
c 
c writing extension stack to 'simp/23.cubes383.adj.ext1'
c opening file to write 'simp/23.cubes383.adj.ext1'
c closing file 'simp/23.cubes383.adj.ext1'
c after writing 78869 bytes 0.1 MB
c wrote 3386 witnesses in 0.00 seconds process time
c 
c --- [ result ] -------------------------------------------------------------
c 
s SATISFIABLE
c 
c --- [ run-time profiling ] -------------------------------------------------
c 
c process time taken by individual solving procedures
c (percentage relative to process time for solving)
c 
c        55.56   82.64% search
c        41.00   60.98% unstable
c        13.15   19.56% stable
c        11.67   17.36% simplify
c         6.88   10.24% parse
c         5.84    8.69% probe
c         3.79    5.64% vivify
c         1.14    1.69% walk
c         1.07    1.59% elim
c         0.28    0.41% lucky
c         0.14    0.21% subsume
c         0.10    0.14% ternary
c   =================================
c        67.23   89.87% solve
c 
c last line shows process time for solving
c (percentage relative to total process time)
c 
c --- [ statistics ] ---------------------------------------------------------
c 
c chronological:              9073        18.83 %  of conflicts
c conflicts:                 48180       716.61    per second
c decisions:                137361      2043.06    per second
c eliminated:                 1115        20.96 %  of all variables
c fixed:                       559        10.51 %  of all variables
c learned:                   47084        97.73 %  per conflict
c learned_lits:            9301316       100.00 %  learned literals
c minimized:                     0         0.00 %  learned literals
c shrunken:                5796054        62.31 %  learned literals
c minishrunken:             664790         7.15 %  learned literals
c propagations:            3934425         0.06 M  per second
c reduced:                   22201        46.08 %  per conflict
c rephased:                      9      5353.33    interval
c restarts:                   1207        39.92    interval
c stabilizing:                   3        56.40 %  of conflicts
c substituted:                   8         0.15 %  of all variables
c subsumed:                  16818         0.84 %  of all clauses
c strengthened:               2784         0.14 %  of all clauses
c ternary:                    1902         0.54 %  of resolved
c vivified:                     13         0.00 %  of all clauses
c walked:                        2     24090.00    interval
c weakened:                   2827         3.17    average size
c 
c seconds are measured in process time for solving
c 
c --- [ resources ] ----------------------------------------------------------
c 
c total process time since initialization:        74.82    seconds
c total real time since initialization:           75.41    seconds
c maximum resident set size of process:          842.38    MB
c 
c --- [ shutting down ] ------------------------------------------------------
c 
c exit 10
WARNING! DIMACS header mismatch: wrong number of variables.
============================[ Problem Statistics ]=============================
|                                                                             |
|  Number of variables:          2726                                         |
|  Number of clauses:          232995                                         |
|  Parse time:                   1.42 s                                       |
|  Simplification time:          0.03 s                                       |
|                                                                             |
============================[ Search Statistics ]====================================================
| Conflicts |          ORIGINAL         |          LEARNT          | Num Sols |      SUBGRAPHS      |
|           |    Vars  Clauses Literals |    Limit  Clauses Lit/Cl |          | Canonical Noncanon. |
=====================================================================================================
|       203 |    2650   233098 23410321 |     2000      203     43 |        0 |        59       103 |
|       407 |    2650   233152 23411457 |     2000      407     76 |        0 |        75       157 |
|       651 |    2650   233171 23411867 |     2000      651     82 |        0 |        91       176 |
|      1000 |    2650   233183 23412228 |     2000     1000     88 |        0 |        95       188 |
|      1510 |    2650   233187 23412358 |     2000     1510     95 |        0 |       102       192 |
|      2305 |    2650   233223 23412994 |     3600     1305     73 |        0 |       119       228 |
|      4007 |    2650   233786 23420498 |     3600     3007     74 |        0 |       248       791 |
|      5997 |    2650   234068 23425271 |     5001     3198     52 |        0 |       365      1073 |
|      9074 |    2650   234583 23436181 |     6304     3778     47 |        0 |       497      1588 |
|     13861 |    2650   235526 23451243 |     7553     5414     41 |        0 |       746      2531 |
|     20024 |    2650   235923 23458391 |     8800     7824     62 |        0 |      1005      2928 |
|     29146 |    2650   236396 23467030 |    11208     7554     47 |        0 |      1146      3401 |
|     42869 |    2650   237145 23480767 |    13621     9490     54 |        0 |      1342      4150 |
|     62990 |    2650   237805 23491289 |    16009    15399     64 |        0 |      1463      4810 |
|     93568 |    2650   239191 23513800 |    20811    10379     26 |        0 |      1857      6196 |
|    138408 |    2650   240242 23529915 |    24409    22217     63 |        1 |      2113      7246 |
|    205629 |    2650   241779 23555681 |    30422    22451     59 |        1 |      2650      8783 |
|    305486 |    2650   243110 23580440 |    37609    22095     41 |        1 |      2972     10114 |
|    455098 |    2650   244933 23622323 |    46017    27515     46 |        4 |      3424     11934 |
|    679626 |    2650   247778 23688080 |    55615    51241     68 |        4 |      3932     14779 |
|   1014304 |    2650   249931 23744331 |    68824    47128     55 |        4 |      4549     16932 |
|   1516858 |    2650   253697 23829507 |    84414    55672     52 |        4 |      5171     20698 |
|   2286014 |    2650   274671 24253896 |   103613    77627     59 |       10 |     10694     41666 |
|   3421287 |    2640   283679 24497324 |   126411   126098     76 |       12 |     12479     54663 |
|   5112639 |    2640   291620 24671846 |   155218   135057     53 |       14 |     13368     62602 |
|   7653784 |    2627   295773 24691689 |   189986   182170     66 |       20 |     16013     78625 |
=====================================================================================================
Number of solutions   : 20
Canonical subgraphs   : 16922          (35 /sec)
          order  3    : 1              (333333 /sec)
          order  4    : 1              (1000000 /sec)
          order  5    : 1              (250000 /sec)
          order  6    : 1              (55556 /sec)
          order  7    : 1              (8850 /sec)
          order  8    : 2              (1363 /sec)
          order  9    : 7              (350 /sec)
          order 10    : 32             (117 /sec)
          order 11    : 153            (39 /sec)
          order 12    : 853            (43 /sec)
          order 13    : 1049           (77 /sec)
          order 14    : 2919           (54 /sec)
          order 15    : 3199           (40 /sec)
          order 16    : 6563           (31 /sec)
          order 17    : 1608           (26 /sec)
          order 18    : 277            (18 /sec)
          order 19    : 117            (19 /sec)
          order 20    : 118            (17 /sec)
          order 21    : 20             (2 /sec)
Noncanonical subgraphs: 84434          (296 /sec)
          order  3    : 0              (-nan /sec)
          order  4    : 0              (-nan /sec)
          order  5    : 0              (-nan /sec)
          order  6    : 0              (-nan /sec)
          order  7    : 0              (-nan /sec)
          order  8    : 0              (-nan /sec)
          order  9    : 0              (-nan /sec)
          order 10    : 0              (-nan /sec)
          order 11    : 0              (-nan /sec)
          order 12    : 0              (-nan /sec)
          order 13    : 11875          (2300 /sec)
          order 14    : 6513           (2823 /sec)
          order 15    : 5427           (1247 /sec)
          order 16    : 58760          (232 /sec)
          order 17    : 1482           (158 /sec)
          order 18    : 276            (65 /sec)
          order 19    : 1              (18 /sec)
          order 20    : 0              (-nan /sec)
Canonicity checking   : 483.917 s
Noncanonicity checking: 285.69 s
Total canonicity time : 769.607 s
database reductions   : 169
restarts              : 14333
conflicts             : 8863141        (2650 /sec)
decisions             : 11331339       (0.00 % random) (3388 /sec)
propagations          : 368667479      (110235 /sec)
conflict literals     : 941513271      (57.03 % deleted)
actual reward         : 0.304051
Memory used           : 394.00 MB
CPU time              : 3344.39 s

UNSATISFIABLE
